
Log started (V11.0.0) Tue May 27 03:04:22 2008

Tried aggregator 1 time.
Reduced MIP has 550 rows, 25001 columns, and 50050 nonzeros.
Presolve time =    0.19 sec.
Clique table members: 500.
MIP emphasis: balance optimality and feasibility.
MIP search method: dynamic search.
Parallel mode: none, using 1 thread.
Root relaxation solution time =    1.72 sec.

        Nodes                                         Cuts/
   Node  Left     Objective  IInf  Best Integer     Best Node    ItCnt     Gap

*     0+    0                        30925.0000      525.6054     1072   98.30%
*     0+    0                          572.0000      525.6054     1072    8.11%
      0     0      526.0000    97      572.0000      Fract: 7     1082    8.04%
      0     0      526.0000   100      572.0000     Covers: 1     1093    8.04%
*     0+    0                          571.0000      526.0000     1093    7.88%
      0     0      526.0000    98      571.0000     Covers: 2     1124    7.88%
*     0+    0                          568.0000      526.0000     1124    7.39%
*     0+    0                          566.0000      526.0000     1124    7.07%
*     0+    0                          565.0000      526.0000     1124    6.90%
*     0+    0                          564.0000      526.0000     1124    6.74%
*     0+    0                          558.0000      526.0000     1124    5.73%
      0     2      526.0000    98      558.0000      526.0000     1124    5.73%
*    10+   10                          557.0000      526.0000     1347    5.57%
*    30+   30                          556.0000      526.0000     1969    5.40%
*    40+   40                          555.0000      526.0000     2344    5.23%
*    50+   50                          554.0000      526.0000     2740    5.05%
*    50+   50                          553.0000      526.0000     2740    4.88%
*    60+   60                          552.0000      526.0000     3213    4.71%
*    60+   60                          551.0000      526.0000     3213    4.54%
*    80+   80                          550.0000      526.0000     4166    4.36%
*   100+  100                          549.0000      526.0000     5313    4.19%
    100   102      526.0000    88      549.0000      526.0000     5313    4.19%
*   120+  120                          548.0000      526.0000     6498    4.01%
*   160+  160                          547.0000      526.0000    10477    3.84%
*   170+  170                          546.0000      526.0000    11557    3.66%
*   180+  180                          545.0000      526.0000    12894    3.49%
*   180+  180                          544.0000      526.0000    12894    3.31%
*   190+  190                          543.0000      526.0000    14456    3.13%
*   200+  200                          541.0000      526.0000    15935    2.77%
    200   202      526.0000    91      541.0000      526.0000    15935    2.77%
*   210+  210                          540.0000      526.0000    17653    2.59%
*   250+  249                          539.0000      526.0000    20282    2.41%
    300   301      527.0000    77      539.0000      526.0000    26632    2.41%
*   320+  319                          538.0000      526.0000    30567    2.23%
    400   401      527.0000    93      538.0000      526.0000    45920    2.23%
    500   496      527.0000    91      538.0000      526.0000   100781    2.23%
*   511+  505                          537.0000      526.0000   109626    2.05%
*   511+  505                          536.0000      526.0000   109626    1.87%
    600   532      526.0000    93      536.0000      526.0000   123052    1.87%
    700   565      526.0000    88      536.0000      526.0000   133651    1.87%
    800   591      527.0000    88      536.0000      526.0000   147817    1.87%
    900   612      527.0000    88      536.0000      526.0000   175486    1.87%
   1000   636      528.0000    84      536.0000      526.0000   206854    1.87%
Elapsed time = 339.20 sec. (tree size =  8.59 MB, solutions = 29)
   1100   664      528.0000    97      536.0000      526.0000   268560    1.87%
   1200   683      529.0000    93      536.0000      526.0000   307637    1.87%
   1300   772      530.0000    88      536.0000      526.0000   347916    1.87%
   1400   867      531.0000    82      536.0000      526.0000   412425    1.87%
   1500   967      531.0000    86      536.0000      526.0000   427030    1.87%
   1600  1067      531.0000    86      536.0000      526.0000   444454    1.87%
   1700  1161      532.0000    83      536.0000      526.0000   500203    1.87%
   1800  1257      533.0000    77      536.0000      526.0000   511020    1.87%
   1900  1349      534.0000    69      536.0000      526.0000   516609    1.87%
   2000  1449      534.0000    71      536.0000      526.0000   519766    1.87%
Elapsed time = 727.16 sec. (tree size = 22.04 MB, solutions = 29)
   2100  1543      535.0000    63      536.0000      526.0000   522020    1.87%
   2200  1643      535.0000    70      536.0000      526.0000   522636    1.87%
   2300  1743      535.0000    63      536.0000      526.0000   523550    1.87%
   2400  1837      526.0000   104      536.0000      526.0000   526436    1.87%
   2500  1937      526.0000    92      536.0000      526.0000   529188    1.87%
   2600  2037      526.0000    91      536.0000      526.0000   534627    1.87%
   2700  2137      526.0000    89      536.0000      526.0000   542404    1.87%
   2800  2237      526.0000    90      536.0000      526.0000   552895    1.87%
   2900  2333      526.0000    90      536.0000      526.0000   574309    1.87%
   3000  2428      527.0000    90      536.0000      526.0000   597474    1.87%
Elapsed time = 862.59 sec. (tree size = 36.79 MB, solutions = 29)
   3100  2525      528.0000    90      536.0000      526.0000   623611    1.87%
   3200  2621      529.0000    90      536.0000      526.0000   674584    1.87%
   3300  2719      530.0000    79      536.0000      526.0000   722453    1.87%
   3400  2815      531.0000    87      536.0000      526.0000   770507    1.87%
   3500  2912      532.0000    83      536.0000      526.0000   833603    1.87%
   3600  3005      533.0000    71      536.0000      526.0000   875367    1.87%
   3700  3105      533.0000    77      536.0000      526.0000   886807    1.87%
   3800  3203      534.0000    69      536.0000      526.0000   901875    1.87%
   3900  3298      535.0000    66      536.0000      526.0000   913409    1.87%
   4000  3378      527.0000    89      536.0000      526.0000   969372    1.87%
Elapsed time = 1279.76 sec. (tree size = 52.74 MB, solutions = 29)
   4100  3478      527.0000    87      536.0000      526.0000   980170    1.87%
   4200  3578      526.0000    86      536.0000      526.0000  1010169    1.87%
   4300  3677      533.0000    64      536.0000      526.0000  1042117    1.87%
   4400  3777      526.0000    81      536.0000      526.0000  1147425    1.87%
   4500  3866      526.0024    94      536.0000      526.0000  1332009    1.87%
   4600  3964      532.0000    63      536.0000      526.0000  1358758    1.87%
   4700  4064      534.0000    79      536.0000      526.0000  1369621    1.87%
   4800  4164      530.0000    80      536.0000      526.0000  1389410    1.87%
   4900  4264      535.0000    47      536.0000      526.0000  1429182    1.87%
   5000  4363      534.0000    53      536.0000      526.0000  1451813    1.87%
Elapsed time = 1832.88 sec. (tree size = 76.19 MB, solutions = 29)
   5100  4463      535.0000    76      536.0000      526.0000  1459692    1.87%
   5200  4557      527.0000    87      536.0000      526.0000  1509746    1.87%
   5300  4657      527.0000    87      536.0000      526.0000  1610781    1.87%
   5400  4756      527.0000    86      536.0000      526.0000  1670950    1.87%
   5500  4856      527.0000    92      536.0000      526.0000  1792300    1.87%
   5600  4955      527.0000    85      536.0000      526.0000  1856276    1.87%
   5700  5055      535.0000    58      536.0000      526.0000  1895730    1.87%
   5800  5154      527.0000    84      536.0000      526.0000  1924486    1.87%
   5900  5254      535.0000    40      536.0000      526.0000  1986327    1.87%
   6000  5353      527.0000    83      536.0000      526.0000  2006049    1.87%
Elapsed time = 2436.66 sec. (tree size = 101.65 MB, solutions = 29)
   6100  5453      531.0000    70      536.0000      526.0000  2095325    1.87%
   6200  5552      527.0000    96      536.0000      526.0000  2139995    1.87%
   6300  5652      534.0000    75      536.0000      526.0000  2148632    1.87%
   6400  5746      527.0000    87      536.0000      526.0000  2185786    1.87%
   6500  5846      527.0000    98      536.0000      526.0000  2299581    1.87%
   6600  5945      532.0000    60      536.0000      526.0000  2335920    1.87%
   6700  6045      532.0000    81      536.0000      526.0000  2343718    1.87%
   6800  6142      527.0000    95      536.0000      526.0000  2379813    1.87%
   6900  6242      527.0000    81      536.0000      526.0000  2481278    1.87%
Began writing nodes to disk (directory ./cpxa04064 created)
   7000  6341      527.0000    94      536.0000      526.0000  2533957    1.87%
Elapsed time = 3068.14 sec. (tree size = 128.16 MB, solutions = 29)
Nodefile size =  0.98 MB (0.72 MB after compression)
   7100  6440      528.0000    81      536.0000      526.0000  2599005    1.87%
   7200  6539      527.0000    85      536.0000      526.0000  2627235    1.87%
   7300  6639      527.0000    86      536.0000      526.0000  2663376    1.87%
   7400  6738      527.0000    86      536.0000      526.0000  2715833    1.87%
   7500  6838      527.0000    89      536.0000      526.0000  2808087    1.87%
   7600  6937      527.0000    87      536.0000      526.0000  2864661    1.87%
   7700  7037      527.0000    89      536.0000      526.0000  2979585    1.87%
   7800  7136      527.0000    85      536.0000      526.0000  3008315    1.87%
   7900  7236      528.0000    80      536.0000      526.0000  3024609    1.87%
   8000  7335      527.0000    87      536.0000      526.0000  3050097    1.87%
Elapsed time = 3690.26 sec. (tree size = 155.75 MB, solutions = 29)
Nodefile size = 28.16 MB (19.91 MB after compression)
   8100  7434      528.0000    79      536.0000      526.0000  3115673    1.87%
   8200  7533      527.0000    85      536.0000      526.0000  3128012    1.87%
   8300  7632      528.0000    93      536.0000      526.0000  3175505    1.87%
   8400  7729      527.0000    90      536.0000      526.0000  3216327    1.87%
   8500  7829      527.0000    92      536.0000      526.0000  3300281    1.87%
   8600  7928      527.0000    89      536.0000      526.0000  3339301    1.87%
   8700  8027      528.0000    99      536.0000      526.0000  3409209    1.87%
   8800  8126      535.0000    44      536.0000      526.0000  3419226    1.87%
   8900  8226      535.0000    68      536.0000      526.0000  3425107    1.87%
   9000  8325      527.0000    91      536.0000      526.0000  3442068    1.87%
Elapsed time = 4195.81 sec. (tree size = 183.83 MB, solutions = 29)
Nodefile size = 56.27 MB (39.66 MB after compression)
   9100  8425      527.0000    96      536.0000      526.0000  3531918    1.87%
   9200  8523      527.0000    94      536.0000      526.0000  3588132    1.87%
   9300  8623      527.0000    86      536.0000      526.0000  3666310    1.87%
   9400  8721      526.0000    85      536.0000      526.0000  3734795    1.87%
   9500  8818      527.0000    82      536.0000      526.0000  3770024    1.87%
   9600  8917      527.0000    90      536.0000      526.0000  3791265    1.87%
   9700  9017      535.0000    62      536.0000      526.0000  3798628    1.87%
   9800  9116      527.0000    89      536.0000      526.0000  3814113    1.87%
   9900  9216      527.0000    98      536.0000      526.0000  3863677    1.87%
  10000  9313      527.0000    94      536.0000      526.0000  3917327    1.87%
Elapsed time = 4833.92 sec. (tree size = 212.39 MB, solutions = 29)
Nodefile size = 84.90 MB (60.40 MB after compression)
  10100  9413      527.0000    94      536.0000      526.0000  4022544    1.87%
  10200  9512      527.0000    97      536.0000      526.0000  4063480    1.87%
  10300  9612      527.0000    95      536.0000      526.0000  4114629    1.87%
  10400  9709      527.0000    94      536.0000      526.0000  4154214    1.87%
  10500  9809      527.0000    96      536.0000      526.0000  4240920    1.87%
* 10523+ 9084                          535.0000      526.0000  4263209    1.68%
  10600  9163      527.0000    96      535.0000      526.0000  4280922    1.68%
* 10613+ 8642                          534.0000      526.0000  4288635    1.50%
  10700  8731      527.0000    85      534.0000      526.0000  4318964    1.50%
  10800  8830      527.0000    98      534.0000      526.0000  4348955    1.50%
  10900  8930      527.0000    92      534.0000      526.0000  4386926    1.50%
  11000  9029      527.0000    84      534.0000      526.0000  4422755    1.50%
Elapsed time = 5483.23 sec. (tree size = 215.71 MB, solutions = 31)
Nodefile size = 87.96 MB (63.97 MB after compression)
  11100  9129      527.0000   105      534.0000      526.0000  4450679    1.50%
  11200  9228      527.0000    90      534.0000      526.0000  4484721    1.50%
* 11213+ 8916                          533.0000      526.0000  4489203    1.31%
  11300  9004      528.0000    80      533.0000      526.0000  4562466    1.31%
  11400  9101      527.0000    84      533.0000      526.0000  4593884    1.31%
  11500  9201      527.0000    89      533.0000      526.0000  4690101    1.31%
  11600  9300      527.0000    82      533.0000      526.0000  4742165    1.31%
  11700  9400      527.0000    88      533.0000      526.0000  4814162    1.31%
  11800  9499      527.0000    96      533.0000      526.0000  4841846    1.31%
* 11813+ 9095                          532.0000      526.0000  4847142    1.13%
  11900  9184      527.0000    96      532.0000      526.0000  4872009    1.13%
  12000  9283      528.0000    94      532.0000      526.0000  4901405    1.13%
Elapsed time = 6108.50 sec. (tree size = 231.59 MB, solutions = 33)
Nodefile size = 103.94 MB (77.67 MB after compression)
  12100  9383      528.0000    87      532.0000      526.0000  4931598    1.13%
  12200  9482      527.0000    91      532.0000      526.0000  4963116    1.13%
  12300  9582      527.0000   102      532.0000      526.0000  5038495    1.13%
  12400  9678      527.0000    96      532.0000      526.0000  5068841    1.13%
  12500  9778      527.0000    95      532.0000      526.0000  5132608    1.13%
  12600  9877      527.0000    89      532.0000      526.0000  5167416    1.13%
  12700  9977      528.0000    82      532.0000      526.0000  5197686    1.13%
  12800 10076      527.0000    93      532.0000      526.0000  5227535    1.13%
  12900 10175      528.0000    75      532.0000      526.0000  5268830    1.13%
  13000 10274      527.0000    85      532.0000      526.0000  5289768    1.13%
Elapsed time = 6637.88 sec. (tree size = 262.90 MB, solutions = 33)
Nodefile size = 135.51 MB (102.97 MB after compression)
  13100 10374      527.0000    92      532.0000      526.0000  5344066    1.13%
  13200 10473      527.0000    87      532.0000      526.0000  5383510    1.13%
  13300 10573      527.0000    91      532.0000      526.0000  5461868    1.13%
  13400 10671      527.0000    93      532.0000      526.0000  5519353    1.13%
  13500 10771      527.0000    90      532.0000      526.0000  5605293    1.13%
  13600 10870      527.0000    91      532.0000      526.0000  5645039    1.13%
  13700 10970      527.0000    91      532.0000      526.0000  5698225    1.13%

Cover cuts applied:  1452
Mixed integer rounding cuts applied:  16
Gomory fractional cuts applied:  2

Solution pool: 33 solutions saved.

MIP - Time limit exceeded, integer feasible:  Objective = 5.3200000000e+002
Current MIP best bound = 5.2600000000e+002 (gap = 6, 1.13%)
Solution time = 7200.03 sec.  Iterations = 5703333  Nodes = 13715 (10984)


Incumbent solution
Variable Name           Solution Value
Cmax                        532.000000
X_1_33                        1.000000
X_2_21                        1.000000
X_3_27                        1.000000
X_4_10                        1.000000
X_5_22                        1.000000
X_6_44                        1.000000
X_7_4                         1.000000
X_8_9                         1.000000
X_9_9                         1.000000
X_10_26                       1.000000
X_11_13                       1.000000
X_12_15                       1.000000
X_13_37                       1.000000
X_14_25                       1.000000
X_15_45                       1.000000
X_16_20                       1.000000
X_17_39                       1.000000
X_18_36                       1.000000
X_19_11                       1.000000
X_20_14                       1.000000
X_21_7                        1.000000
X_22_47                       1.000000
X_23_12                       1.000000
X_24_36                       1.000000
X_25_35                       1.000000
X_26_34                       1.000000
X_27_17                       1.000000
X_28_44                       1.000000
X_29_28                       1.000000
X_30_2                        1.000000
X_31_4                        1.000000
X_32_21                       1.000000
X_33_29                       1.000000
X_34_48                       1.000000
X_35_18                       1.000000
X_36_34                       1.000000
X_37_43                       1.000000
X_38_39                       1.000000
X_39_43                       1.000000
X_40_9                        1.000000
X_41_34                       1.000000
X_42_22                       1.000000
X_43_47                       1.000000
X_44_12                       1.000000
X_45_13                       1.000000
X_46_43                       1.000000
X_47_20                       1.000000
X_48_31                       1.000000
X_49_7                        1.000000
X_50_32                       1.000000
X_51_14                       1.000000
X_52_36                       1.000000
X_53_41                       1.000000
X_54_1                        1.000000
X_55_37                       1.000000
X_56_17                       1.000000
X_57_11                       1.000000
X_58_22                       1.000000
X_59_20                       1.000000
X_60_39                       1.000000
X_61_22                       1.000000
X_62_7                        1.000000
X_63_45                       1.000000
X_64_32                       1.000000
X_65_44                       1.000000
X_66_42                       1.000000
X_67_27                       1.000000
X_68_43                       1.000000
X_69_6                        1.000000
X_70_41                       1.000000
X_71_49                       1.000000
X_72_30                       1.000000
X_73_40                       1.000000
X_74_26                       1.000000
X_75_46                       1.000000
X_76_10                       1.000000
X_77_50                       1.000000
X_78_44                       1.000000
X_79_43                       1.000000
X_80_39                       1.000000
X_81_8                        1.000000
X_82_35                       1.000000
X_83_23                       1.000000
X_84_23                       1.000000
X_85_36                       1.000000
X_86_1                        1.000000
X_87_30                       1.000000
X_88_44                       1.000000
X_89_44                       1.000000
X_90_39                       1.000000
X_91_31                       1.000000
X_92_24                       1.000000
X_93_18                       1.000000
X_94_25                       1.000000
X_95_10                       1.000000
X_96_5                        1.000000
X_97_26                       1.000000
X_98_44                       1.000000
X_99_24                       1.000000
X_100_29                      1.000000
X_101_21                      1.000000
X_102_31                      1.000000
X_103_36                      1.000000
X_104_9                       1.000000
X_105_21                      1.000000
X_106_16                      1.000000
X_107_14                      1.000000
X_108_3                       1.000000
X_109_23                      1.000000
X_110_47                      1.000000
X_111_12                      1.000000
X_112_29                      1.000000
X_113_18                      1.000000
X_114_48                      1.000000
X_115_39                      1.000000
X_116_25                      1.000000
X_117_4                       1.000000
X_118_5                       1.000000
X_119_10                      1.000000
X_120_40                      1.000000
X_121_28                      1.000000
X_122_4                       1.000000
X_123_47                      1.000000
X_124_19                      1.000000
X_125_11                      1.000000
X_126_48                      1.000000
X_127_15                      1.000000
X_128_37                      1.000000
X_129_17                      1.000000
X_130_28                      1.000000
X_131_48                      1.000000
X_132_3                       1.000000
X_133_29                      1.000000
X_134_9                       1.000000
X_135_38                      1.000000
X_136_22                      1.000000
X_137_10                      1.000000
X_138_45                      1.000000
X_139_14                      1.000000
X_140_8                       1.000000
X_141_28                      1.000000
X_142_24                      1.000000
X_143_14                      1.000000
X_144_23                      1.000000
X_145_16                      1.000000
X_146_30                      1.000000
X_147_43                      1.000000
X_148_8                       1.000000
X_149_9                       1.000000
X_150_20                      1.000000
X_151_42                      1.000000
X_152_23                      1.000000
X_153_9                       1.000000
X_154_2                       1.000000
X_155_38                      1.000000
X_156_41                      1.000000
X_157_39                      1.000000
X_158_5                       1.000000
X_159_11                      1.000000
X_160_10                      1.000000
X_161_50                      1.000000
X_162_6                       1.000000
X_163_40                      1.000000
X_164_30                      1.000000
X_165_13                      1.000000
X_166_50                      1.000000
X_167_50                      1.000000
X_168_49                      1.000000
X_169_45                      1.000000
X_170_23                      1.000000
X_171_25                      1.000000
X_172_37                      1.000000
X_173_20                      1.000000
X_174_6                       1.000000
X_175_31                      1.000000
X_176_26                      1.000000
X_177_29                      1.000000
X_178_22                      1.000000
X_179_26                      1.000000
X_180_25                      1.000000
X_181_9                       1.000000
X_182_2                       1.000000
X_183_42                      1.000000
X_184_43                      1.000000
X_185_40                      1.000000
X_186_17                      1.000000
X_187_31                      1.000000
X_188_38                      1.000000
X_189_3                       1.000000
X_190_19                      1.000000
X_191_42                      1.000000
X_192_37                      1.000000
X_193_39                      1.000000
X_194_8                       1.000000
X_195_29                      1.000000
X_196_9                       1.000000
X_197_16                      1.000000
X_198_11                      1.000000
X_199_42                      1.000000
X_200_43                      1.000000
X_201_12                      1.000000
X_202_15                      1.000000
X_203_14                      1.000000
X_204_2                       1.000000
X_205_14                      1.000000
X_206_32                      1.000000
X_207_33                      1.000000
X_208_26                      1.000000
X_209_46                      1.000000
X_210_40                      1.000000
X_211_1                       1.000000
X_212_28                      1.000000
X_213_39                      1.000000
X_214_46                      1.000000
X_215_21                      1.000000
X_216_49                      1.000000
X_217_42                      1.000000
X_218_20                      1.000000
X_219_30                      1.000000
X_220_41                      1.000000
X_221_38                      1.000000
X_222_32                      1.000000
X_223_40                      1.000000
X_224_2                       1.000000
X_225_16                      1.000000
X_226_31                      1.000000
X_227_27                      1.000000
X_228_15                      1.000000
X_229_6                       1.000000
X_230_6                       1.000000
X_231_23                      1.000000
X_232_46                      1.000000
X_233_35                      1.000000
X_234_23                      1.000000
X_235_48                      1.000000
X_236_15                      1.000000
X_237_39                      1.000000
X_238_5                       1.000000
X_239_25                      1.000000
X_240_19                      1.000000
X_241_46                      1.000000
X_242_19                      1.000000
X_243_7                       1.000000
X_244_23                      1.000000
X_245_14                      1.000000
X_246_34                      1.000000
X_247_13                      1.000000
X_248_14                      1.000000
X_249_27                      1.000000
X_250_37                      1.000000
X_251_11                      1.000000
X_252_21                      1.000000
X_253_39                      1.000000
X_254_10                      1.000000
X_255_31                      1.000000
X_256_38                      1.000000
X_257_35                      1.000000
X_258_25                      1.000000
X_259_20                      1.000000
X_260_28                      1.000000
X_261_19                      1.000000
X_262_29                      1.000000
X_263_7                       1.000000
X_264_30                      1.000000
X_265_4                       1.000000
X_266_37                      1.000000
X_267_43                      1.000000
X_268_15                      1.000000
X_269_16                      1.000000
X_270_18                      1.000000
X_271_4                       1.000000
X_272_12                      1.000000
X_273_40                      1.000000
X_274_32                      1.000000
X_275_46                      1.000000
X_276_49                      1.000000
X_277_4                       1.000000
X_278_11                      1.000000
X_279_3                       1.000000
X_280_16                      1.000000
X_281_40                      1.000000
X_282_49                      1.000000
X_283_15                      1.000000
X_284_14                      1.000000
X_285_14                      1.000000
X_286_32                      1.000000
X_287_34                      1.000000
X_288_38                      1.000000
X_289_45                      1.000000
X_290_24                      1.000000
X_291_34                      1.000000
X_292_21                      1.000000
X_293_26                      1.000000
X_294_14                      1.000000
X_295_28                      1.000000
X_296_33                      1.000000
X_297_31                      1.000000
X_298_13                      1.000000
X_299_19                      1.000000
X_300_37                      1.000000
X_301_8                       1.000000
X_302_10                      1.000000
X_303_46                      1.000000
X_304_42                      1.000000
X_305_7                       1.000000
X_306_44                      1.000000
X_307_18                      1.000000
X_308_19                      1.000000
X_309_47                      1.000000
X_310_8                       1.000000
X_311_8                       1.000000
X_312_50                      1.000000
X_313_20                      1.000000
X_314_29                      1.000000
X_315_31                      1.000000
X_316_38                      1.000000
X_317_24                      1.000000
X_318_24                      1.000000
X_319_33                      1.000000
X_320_5                       1.000000
X_321_2                       1.000000
X_322_26                      1.000000
X_323_23                      1.000000
X_324_11                      1.000000
X_325_7                       1.000000
X_326_42                      1.000000
X_327_6                       1.000000
X_328_49                      1.000000
X_329_33                      1.000000
X_330_48                      1.000000
X_331_1                       1.000000
X_332_44                      1.000000
X_333_47                      1.000000
X_334_1                       1.000000
X_335_16                      1.000000
X_336_50                      1.000000
X_337_1                       1.000000
X_338_34                      1.000000
X_339_5                       1.000000
X_340_40                      1.000000
X_341_31                      1.000000
X_342_33                      1.000000
X_343_28                      1.000000
X_344_49                      1.000000
X_345_30                      1.000000
X_346_36                      1.000000
X_347_15                      1.000000
X_348_28                      1.000000
X_349_40                      1.000000
X_350_4                       1.000000
X_351_18                      1.000000
X_352_16                      1.000000
X_353_26                      1.000000
X_354_42                      1.000000
X_355_47                      1.000000
X_356_19                      1.000000
X_357_26                      1.000000
X_358_36                      1.000000
X_359_3                       1.000000
X_360_49                      1.000000
X_361_11                      1.000000
X_362_15                      1.000000
X_363_26                      1.000000
X_364_46                      1.000000
X_365_1                       1.000000
X_366_41                      1.000000
X_367_36                      1.000000
X_368_39                      1.000000
X_369_32                      1.000000
X_370_41                      1.000000
X_371_19                      1.000000
X_372_1                       1.000000
X_373_3                       1.000000
X_374_1                       1.000000
X_375_45                      1.000000
X_376_46                      1.000000
X_377_47                      1.000000
X_378_38                      1.000000
X_379_15                      1.000000
X_380_15                      1.000000
X_381_34                      1.000000
X_382_44                      1.000000
X_383_12                      1.000000
X_384_46                      1.000000
X_385_33                      1.000000
X_386_25                      1.000000
X_387_32                      1.000000
X_388_37                      1.000000
X_389_31                      1.000000
X_390_38                      1.000000
X_391_5                       1.000000
X_392_24                      1.000000
X_393_17                      1.000000
X_394_2                       1.000000
X_395_4                       1.000000
X_396_25                      1.000000
X_397_27                      1.000000
X_398_12                      1.000000
X_399_21                      1.000000
X_400_3                       1.000000
X_401_17                      1.000000
X_402_39                      1.000000
X_403_25                      1.000000
X_404_20                      1.000000
X_405_24                      1.000000
X_406_38                      1.000000
X_407_33                      1.000000
X_408_3                       1.000000
X_409_36                      1.000000
X_410_1                       1.000000
X_411_23                      1.000000
X_412_12                      1.000000
X_413_18                      1.000000
X_414_18                      1.000000
X_415_35                      1.000000
X_416_38                      1.000000
X_417_7                       1.000000
X_418_18                      1.000000
X_419_4                       1.000000
X_420_40                      1.000000
X_421_20                      1.000000
X_422_7                       1.000000
X_423_26                      1.000000
X_424_30                      1.000000
X_425_2                       1.000000
X_426_22                      1.000000
X_427_11                      1.000000
X_428_13                      1.000000
X_429_13                      1.000000
X_430_13                      1.000000
X_431_6                       1.000000
X_432_32                      1.000000
X_433_27                      1.000000
X_434_44                      1.000000
X_435_12                      1.000000
X_436_35                      1.000000
X_437_6                       1.000000
X_438_45                      1.000000
X_439_50                      1.000000
X_440_40                      1.000000
X_441_9                       1.000000
X_442_29                      1.000000
X_443_31                      1.000000
X_444_29                      1.000000
X_445_29                      1.000000
X_446_16                      1.000000
X_447_27                      1.000000
X_448_32                      1.000000
X_449_39                      1.000000
X_450_10                      1.000000
X_451_22                      1.000000
X_452_34                      1.000000
X_453_8                       1.000000
X_454_3                       1.000000
X_455_27                      1.000000
X_456_30                      1.000000
X_457_48                      1.000000
X_458_28                      1.000000
X_459_12                      1.000000
X_460_48                      1.000000
X_461_8                       1.000000
X_462_10                      1.000000
X_463_25                      1.000000
X_464_24                      1.000000
X_465_28                      1.000000
X_466_50                      1.000000
X_467_30                      1.000000
X_468_4                       1.000000
X_469_48                      1.000000
X_470_50                      1.000000
X_471_33                      1.000000
X_472_50                      1.000000
X_473_26                      1.000000
X_474_12                      1.000000
X_475_5                       1.000000
X_476_2                       1.000000
X_477_2                       1.000000
X_478_35                      1.000000
X_479_4                       1.000000
X_480_35                      1.000000
X_481_27                      1.000000
X_482_32                      1.000000
X_483_49                      1.000000
X_484_25                      1.000000
X_485_6                       1.000000
X_486_41                      1.000000
X_487_19                      1.000000
X_488_35                      1.000000
X_489_43                      1.000000
X_490_17                      1.000000
X_491_33                      1.000000
X_492_37                      1.000000
X_493_1                       1.000000
X_494_34                      1.000000
X_495_26                      1.000000
X_496_12                      1.000000
X_497_31                      1.000000
X_498_41                      1.000000
X_499_38                      1.000000
X_500_47                      1.000000
All other variables in the range 1-25001 are 0.
